QPLIB_2204
LGQ
minimize
335 # number of variables
330 # number of constraints
0.0 # default value for linear coefficients in objective
110 # number of non-default linear coefficients in objective
1 1.0
2 1.0
3 1.0
4 1.0
5 1.0
6 1.0
7 1.0
8 1.0
9 1.0
10 1.0
11 1.0
12 1.0
13 1.0
14 1.0
15 1.0
16 1.0
17 1.0
18 1.0
19 1.0
20 1.0
21 1.0
22 1.0
23 1.0
24 1.0
25 1.0
26 1.0
27 1.0
28 1.0
29 1.0
30 1.0
31 1.0
32 1.0
33 1.0
34 1.0
35 1.0
36 1.0
37 1.0
38 1.0
39 1.0
40 1.0
41 1.0
42 1.0
43 1.0
44 1.0
45 1.0
46 1.0
47 1.0
48 1.0
49 1.0
50 1.0
51 1.0
52 1.0
53 1.0
54 1.0
55 1.0
56 1.0
57 1.0
58 1.0
59 1.0
60 1.0
61 1.0
62 1.0
63 1.0
64 1.0
65 1.0
66 1.0
67 1.0
68 1.0
69 1.0
70 1.0
71 1.0
72 1.0
73 1.0
74 1.0
75 1.0
76 1.0
77 1.0
78 1.0
79 1.0
80 1.0
81 1.0
82 1.0
83 1.0
84 1.0
85 1.0
86 1.0
87 1.0
88 1.0
89 1.0
90 1.0
91 1.0
92 1.0
93 1.0
94 1.0
95 1.0
96 1.0
97 1.0
98 1.0
99 1.0
100 1.0
101 1.0
102 1.0
103 1.0
104 1.0
105 1.0
106 1.0
107 1.0
108 1.0
109 1.0
110 1.0
0.0 # objective constant
110 # number of quadratic terms in all constraints
221 1763733364 1 2.0
222 824209265 1 2.0
223 12321 50 2.0
224 1 1 2.0
225 1651076122 1 2.0
226 1852403556 1 2.0
227 1768711012 50 2.0
228 775173731 1 2.0
229 1763733364 1651076122 2.0
230 1852403556 824209265 2.0
231 1768711012 12321 2.0
232 775173731 1 2.0
233 1864396660 1 2.0
234 824205172 1 2.0
235 12321 50 2.0
236 1 1 2.0
237 1651076122 1 2.0
238 1852403556 1 2.0
239 1768711012 50 2.0
240 775173731 1 2.0
241 1864396660 1651076122 2.0
242 1852403556 824205172 2.0
243 1768711012 12321 2.0
244 775173731 1 2.0
245 1931505524 1 2.0
246 824209508 1 2.0
247 50 -1155059423 2.0
248 32734 1 2.0
249 1651076122 385 2.0
250 1852403556 1 2.0
251 1768711012 50 2.0
252 775173731 1 2.0
253 1931505524 1651076121 2.0
254 1684959076 824209508 2.0
255 1651076196 -1155059423 2.0
256 1932407863 32734 2.0
257 1868767344 385 2.0
258 540090479 1 2.0
259 50 50 2.0
260 1 1 2.0
261 1651076121 21238257 2.0
262 1684959076 1 2.0
263 1651076196 50 2.0
264 1932407863 1 2.0
265 1868767344 1651076121 2.0
266 1684959076 540090479 2.0
267 1651076196 50 2.0
268 1932407863 1 2.0
269 1868767344 21238257 2.0
270 540090479 1 2.0
271 50 -1155042766 2.0
272 32734 1 2.0
273 1651076121 481 2.0
274 1684959076 1 2.0
275 1651076196 50 2.0
276 1932407863 1 2.0
277 1868767344 1651076121 2.0
278 1681157988 540090479 2.0
279 1651076196 -1155042766 2.0
280 1932407863 32734 2.0
281 1868767344 481 2.0
282 540090421 1 2.0
283 2097 50 2.0
284 1 1 2.0
285 1651076121 21257105 2.0
286 1681157988 1 2.0
287 1651076196 50 2.0
288 1932407863 1 2.0
289 1868767344 1651076121 2.0
290 1684959076 540090421 2.0
291 1651076196 2097 2.0
292 1932407863 1 2.0
293 1868767344 21257105 2.0
294 540090479 1 2.0
295 50 50 2.0
296 1 1 2.0
297 1651076121 -1155040263 2.0
298 1684959076 32734 2.0
299 1651076196 50 2.0
300 1932407863 1 2.0
301 1868767344 1651076121 2.0
302 1684305508 540090479 2.0
303 1651076196 50 2.0
304 1932407863 1 2.0
305 1986207856 -1155040263 2.0
306 540090469 32734 2.0
307 21239857 50 2.0
308 1 1 2.0
309 1651076121 21257121 2.0
310 1684305508 1 2.0
311 1651076196 50 2.0
312 1932407863 1 2.0
313 1986207856 1651076122 2.0
314 1852403556 540090469 2.0
315 1768711012 21239857 2.0
316 775173731 1 2.0
317 1663070068 21257121 2.0
318 824210800 1 2.0
319 21245985 50 2.0
320 1 1 2.0
321 1651076122 21259281 2.0
322 1852403556 1 2.0
323 1768711012 34 2.0
324 775173731 1 2.0
325 1663070068 -1169200959 2.0
326 824210800 32734 2.0
327 21245985 21220257 2.0
328 1 1 2.0
329 21259281 1 2.0
330 1 1 2.0
872 # number of linear terms in all constraints
1 111 -66.0
1 112 49.0
1 113 -81.0
1 114 73.0
1 115 15.0
1 116 -1.0
2 111 38.0
2 112 -26.0
2 113 74.0
2 114 48.0
2 115 -11.0
2 117 -1.0
3 111 46.0
3 112 -48.0
3 113 -21.0
3 114 55.0
3 115 68.0
3 118 -1.0
4 111 42.0
4 112 -84.0
4 113 -9.0
4 114 -78.0
4 115 8.0
4 119 -1.0
5 111 13.0
5 112 91.0
5 113 73.0
5 114 -68.0
5 115 -45.0
5 120 -1.0
6 111 84.0
6 112 -13.0
6 113 57.0
6 114 -75.0
6 115 -84.0
6 121 -1.0
7 111 -95.0
7 112 -70.0
7 113 -24.0
7 114 -69.0
7 115 5.0
7 122 -1.0
8 111 -14.0
8 112 -47.0
8 113 -37.0
8 114 53.0
8 115 -79.0
8 123 -1.0
9 111 40.0
9 112 -57.0
9 113 52.0
9 114 -18.0
9 115 29.0
9 124 -1.0
10 112 37.0
10 113 -13.0
10 114 21.0
10 115 14.0
10 125 -1.0
11 111 -7.0
11 112 26.0
11 113 -73.0
11 114 92.0
11 115 -71.0
11 126 -1.0
12 111 -35.0
12 112 90.0
12 113 -29.0
12 114 -20.0
12 115 -80.0
12 127 -1.0
13 111 96.0
13 112 14.0
13 113 73.0
13 114 -70.0
13 115 81.0
13 128 -1.0
14 111 -88.0
14 112 90.0
14 113 93.0
14 114 56.0
14 115 60.0
14 129 -1.0
15 111 -44.0
15 112 92.0
15 113 15.0
15 114 -13.0
15 115 -25.0
15 130 -1.0
16 111 -95.0
16 112 53.0
16 113 44.0
16 114 17.0
16 115 -15.0
16 131 -1.0
17 111 49.0
17 112 -87.0
17 113 -90.0
17 114 54.0
17 115 40.0
17 132 -1.0
18 111 -40.0
18 112 -86.0
18 113 37.0
18 114 -27.0
18 115 45.0
18 133 -1.0
19 111 -69.0
19 112 -68.0
19 113 66.0
19 114 9.0
19 115 -37.0
19 134 -1.0
20 111 -13.0
20 112 -58.0
20 113 45.0
20 114 -100.0
20 115 16.0
20 135 -1.0
21 111 87.0
21 112 52.0
21 113 -75.0
21 114 -98.0
21 136 -1.0
22 111 70.0
22 112 -82.0
22 113 71.0
22 114 57.0
22 115 15.0
22 137 -1.0
23 111 65.0
23 112 49.0
23 113 81.0
23 114 1.0
23 115 76.0
23 138 -1.0
24 111 12.0
24 112 -5.0
24 113 -17.0
24 114 29.0
24 115 75.0
24 139 -1.0
25 111 -56.0
25 112 99.0
25 113 -69.0
25 114 38.0
25 115 40.0
25 140 -1.0
26 111 29.0
26 112 30.0
26 113 68.0
26 114 36.0
26 115 93.0
26 141 -1.0
27 111 59.0
27 112 -68.0
27 113 72.0
27 114 20.0
27 115 -16.0
27 142 -1.0
28 111 73.0
28 112 -7.0
28 113 -51.0
28 114 68.0
28 115 68.0
28 143 -1.0
29 111 -74.0
29 112 -5.0
29 113 56.0
29 115 13.0
29 144 -1.0
30 111 -93.0
30 112 -34.0
30 113 -15.0
30 114 16.0
30 115 -83.0
30 145 -1.0
31 111 17.0
31 112 -53.0
31 113 48.0
31 114 91.0
31 115 72.0
31 146 -1.0
32 111 7.0
32 112 -24.0
32 113 -100.0
32 114 43.0
32 115 -90.0
32 147 -1.0
33 111 51.0
33 112 25.0
33 113 86.0
33 114 9.0
33 115 -17.0
33 148 -1.0
34 111 -61.0
34 112 -39.0
34 113 -58.0
34 114 21.0
34 115 -26.0
34 149 -1.0
35 111 -8.0
35 112 60.0
35 113 -64.0
35 114 43.0
35 115 -5.0
35 150 -1.0
36 111 26.0
36 112 -52.0
36 113 -76.0
36 114 74.0
36 115 -80.0
36 151 -1.0
37 111 -24.0
37 112 10.0
37 113 -85.0
37 114 -25.0
37 115 24.0
37 152 -1.0
38 111 -16.0
38 112 64.0
38 113 9.0
38 114 45.0
38 115 -2.0
38 153 -1.0
39 112 -2.0
39 113 -2.0
39 114 69.0
39 115 83.0
39 154 -1.0
40 111 8.0
40 112 20.0
40 113 21.0
40 114 -12.0
40 115 41.0
40 155 -1.0
41 111 52.0
41 112 -39.0
41 113 57.0
41 114 -82.0
41 115 79.0
41 156 -1.0
42 111 93.0
42 112 23.0
42 113 -87.0
42 114 -78.0
42 115 25.0
42 157 -1.0
43 111 11.0
43 112 -53.0
43 113 22.0
43 114 86.0
43 115 13.0
43 158 -1.0
44 111 -7.0
44 112 -76.0
44 113 -53.0
44 114 99.0
44 115 11.0
44 159 -1.0
45 111 -43.0
45 112 45.0
45 113 64.0
45 114 -2.0
45 115 18.0
45 160 -1.0
46 111 -69.0
46 112 39.0
46 113 18.0
46 114 76.0
46 115 -14.0
46 161 -1.0
47 111 -64.0
47 112 37.0
47 113 -57.0
47 114 -47.0
47 115 -56.0
47 162 -1.0
48 111 -47.0
48 112 -11.0
48 113 -53.0
48 114 -41.0
48 115 29.0
48 163 -1.0
49 111 38.0
49 112 -15.0
49 113 51.0
49 114 -20.0
49 115 -25.0
49 164 -1.0
50 111 6.0
50 112 79.0
50 113 30.0
50 114 86.0
50 115 -99.0
50 165 -1.0
51 111 28.0
51 112 52.0
51 113 34.0
51 114 53.0
51 115 50.0
51 166 -1.0
52 111 -57.0
52 112 26.0
52 113 19.0
52 114 24.0
52 115 -27.0
52 167 -1.0
53 111 -50.0
53 112 -28.0
53 113 -3.0
53 115 -42.0
53 168 -1.0
54 111 32.0
54 112 79.0
54 113 33.0
54 114 -92.0
54 115 67.0
54 169 -1.0
55 111 -64.0
55 112 -95.0
55 113 -5.0
55 114 12.0
55 115 -67.0
55 170 -1.0
56 111 28.0
56 112 -39.0
56 113 91.0
56 114 52.0
56 115 26.0
56 171 -1.0
57 111 -74.0
57 112 51.0
57 113 -4.0
57 114 42.0
57 115 -77.0
57 172 -1.0
58 111 -20.0
58 112 40.0
58 113 56.0
58 114 40.0
58 115 -47.0
58 173 -1.0
59 111 -74.0
59 112 -45.0
59 113 -84.0
59 114 -58.0
59 115 -61.0
59 174 -1.0
60 111 20.0
60 112 9.0
60 113 13.0
60 114 -75.0
60 115 -86.0
60 175 -1.0
61 111 -70.0
61 112 12.0
61 113 -37.0
61 114 -33.0
61 115 -59.0
61 176 -1.0
62 111 -93.0
62 112 -92.0
62 113 63.0
62 114 -88.0
62 115 41.0
62 177 -1.0
63 111 77.0
63 112 87.0
63 113 -100.0
63 114 -30.0
63 115 87.0
63 178 -1.0
64 111 -28.0
64 112 95.0
64 113 -95.0
64 114 -32.0
64 115 69.0
64 179 -1.0
65 111 40.0
65 112 13.0
65 113 -80.0
65 114 -64.0
65 115 -52.0
65 180 -1.0
66 111 97.0
66 112 2.0
66 113 80.0
66 114 -7.0
66 115 -5.0
66 181 -1.0
67 111 51.0
67 112 -77.0
67 113 -71.0
67 114 39.0
67 115 -48.0
67 182 -1.0
68 111 -87.0
68 112 -71.0
68 113 -18.0
68 114 -84.0
68 115 27.0
68 183 -1.0
69 111 -52.0
69 112 15.0
69 113 -68.0
69 114 -47.0
69 115 -85.0
69 184 -1.0
70 111 -83.0
70 112 -72.0
70 113 -6.0
70 114 44.0
70 115 -5.0
70 185 -1.0
71 111 -1.0
71 112 -84.0
71 113 -41.0
71 114 -41.0
71 115 -34.0
71 186 -1.0
72 111 -81.0
72 112 -60.0
72 113 -79.0
72 114 -66.0
72 115 66.0
72 187 -1.0
73 111 84.0
73 112 6.0
73 113 -6.0
73 114 39.0
73 115 1.0
73 188 -1.0
74 111 96.0
74 112 -7.0
74 113 33.0
74 114 78.0
74 115 70.0
74 189 -1.0
75 111 42.0
75 112 -83.0
75 113 59.0
75 114 -25.0
75 115 -9.0
75 190 -1.0
76 111 55.0
76 112 19.0
76 113 -89.0
76 114 -76.0
76 115 11.0
76 191 -1.0
77 111 -88.0
77 112 4.0
77 113 68.0
77 114 -69.0
77 115 -100.0
77 192 -1.0
78 111 -57.0
78 112 -63.0
78 113 93.0
78 114 63.0
78 115 41.0
78 193 -1.0
79 111 35.0
79 112 54.0
79 113 -54.0
79 114 -57.0
79 115 -26.0
79 194 -1.0
80 111 -68.0
80 112 22.0
80 113 -76.0
80 114 -13.0
80 115 -100.0
80 195 -1.0
81 111 -8.0
81 112 37.0
81 113 -94.0
81 114 -19.0
81 196 -1.0
82 111 99.0
82 112 -27.0
82 113 -26.0
82 114 90.0
82 115 -84.0
82 197 -1.0
83 111 58.0
83 112 -29.0
83 113 94.0
83 114 -64.0
83 115 -14.0
83 198 -1.0
84 111 -77.0
84 112 6.0
84 113 -52.0
84 114 22.0
84 115 55.0
84 199 -1.0
85 111 -2.0
85 112 86.0
85 113 -37.0
85 114 -28.0
85 115 -80.0
85 200 -1.0
86 111 77.0
86 112 78.0
86 113 97.0
86 114 -79.0
86 115 -70.0
86 201 -1.0
87 111 56.0
87 112 75.0
87 113 -48.0
87 114 -75.0
87 115 7.0
87 202 -1.0
88 111 -23.0
88 112 -26.0
88 113 -5.0
88 114 45.0
88 115 86.0
88 203 -1.0
89 111 -5.0
89 112 91.0
89 113 -40.0
89 114 -10.0
89 115 64.0
89 204 -1.0
90 111 45.0
90 112 -31.0
90 113 31.0
90 114 72.0
90 115 32.0
90 205 -1.0
91 111 85.0
91 112 -36.0
91 113 -5.0
91 114 13.0
91 115 -15.0
91 206 -1.0
92 111 -83.0
92 112 -15.0
92 113 -38.0
92 114 39.0
92 115 -29.0
92 207 -1.0
93 111 -78.0
93 112 47.0
93 113 85.0
93 114 -72.0
93 115 88.0
93 208 -1.0
94 111 -20.0
94 112 -60.0
94 113 -80.0
94 114 -93.0
94 115 -19.0
94 209 -1.0
95 111 36.0
95 112 -49.0
95 113 62.0
95 114 -81.0
95 115 29.0
95 210 -1.0
96 112 -69.0
96 113 26.0
96 114 -79.0
96 115 -58.0
96 211 -1.0
97 111 97.0
97 112 -97.0
97 113 72.0
97 114 -76.0
97 115 -74.0
97 212 -1.0
98 111 -74.0
98 112 72.0
98 113 8.0
98 114 -11.0
98 115 -37.0
98 213 -1.0
99 111 93.0
99 112 61.0
99 113 44.0
99 114 68.0
99 115 86.0
99 214 -1.0
100 111 -7.0
100 112 -22.0
100 113 -24.0
100 114 -50.0
100 115 -74.0
100 215 -1.0
101 111 23.0
101 112 -2.0
101 113 3.0
101 114 56.0
101 115 -45.0
101 216 -1.0
102 111 -79.0
102 112 -54.0
102 113 80.0
102 114 15.0
102 115 62.0
102 217 -1.0
103 111 41.0
103 112 -32.0
103 113 87.0
103 114 -59.0
103 115 44.0
103 218 -1.0
104 111 -31.0
104 112 -35.0
104 113 -32.0
104 114 5.0
104 115 10.0
104 219 -1.0
105 111 -9.0
105 113 -50.0
105 114 1.0
105 115 -52.0
105 220 -1.0
106 111 -41.0
106 112 82.0
106 113 13.0
106 114 -41.0
106 115 -3.0
106 221 -1.0
107 111 28.0
107 112 -74.0
107 113 64.0
107 114 2.0
107 115 -19.0
107 222 -1.0
108 111 43.0
108 112 -4.0
108 113 43.0
108 114 70.0
108 115 67.0
108 223 -1.0
109 111 82.0
109 112 -84.0
109 113 -67.0
109 114 35.0
109 115 53.0
109 224 -1.0
110 111 -14.0
110 112 71.0
110 113 -30.0
110 114 33.0
110 115 -57.0
110 225 -1.0
111 1 -1.0
111 226 -1.0
112 2 -1.0
112 227 -1.0
113 3 -1.0
113 228 -1.0
114 4 -1.0
114 229 -1.0
115 5 -1.0
115 230 -1.0
116 6 -1.0
116 231 -1.0
117 7 -1.0
117 232 -1.0
118 8 -1.0
118 233 -1.0
119 9 -1.0
119 234 -1.0
120 10 -1.0
120 235 -1.0
121 11 -1.0
121 236 -1.0
122 12 -1.0
122 237 -1.0
123 13 -1.0
123 238 -1.0
124 14 -1.0
124 239 -1.0
125 15 -1.0
125 240 -1.0
126 16 -1.0
126 241 -1.0
127 17 -1.0
127 242 -1.0
128 18 -1.0
128 243 -1.0
129 19 -1.0
129 244 -1.0
130 20 -1.0
130 245 -1.0
131 21 -1.0
131 246 -1.0
132 22 -1.0
132 247 -1.0
133 23 -1.0
133 248 -1.0
134 24 -1.0
134 249 -1.0
135 25 -1.0
135 250 -1.0
136 26 -1.0
136 251 -1.0
137 27 -1.0
137 252 -1.0
138 28 -1.0
138 253 -1.0
139 29 -1.0
139 254 -1.0
140 30 -1.0
140 255 -1.0
141 31 -1.0
141 256 -1.0
142 32 -1.0
142 257 -1.0
143 33 -1.0
143 258 -1.0
144 34 -1.0
144 259 -1.0
145 35 -1.0
145 260 -1.0
146 36 -1.0
146 261 -1.0
147 37 -1.0
147 262 -1.0
148 38 -1.0
148 263 -1.0
149 39 -1.0
149 264 -1.0
150 40 -1.0
150 265 -1.0
151 41 -1.0
151 266 -1.0
152 42 -1.0
152 267 -1.0
153 43 -1.0
153 268 -1.0
154 44 -1.0
154 269 -1.0
155 45 -1.0
155 270 -1.0
156 46 -1.0
156 271 -1.0
157 47 -1.0
157 272 -1.0
158 48 -1.0
158 273 -1.0
159 49 -1.0
159 274 -1.0
160 50 -1.0
160 275 -1.0
161 51 -1.0
161 276 -1.0
162 52 -1.0
162 277 -1.0
163 53 -1.0
163 278 -1.0
164 54 -1.0
164 279 -1.0
165 55 -1.0
165 280 -1.0
166 56 -1.0
166 281 -1.0
167 57 -1.0
167 282 -1.0
168 58 -1.0
168 283 -1.0
169 59 -1.0
169 284 -1.0
170 60 -1.0
170 285 -1.0
171 61 -1.0
171 286 -1.0
172 62 -1.0
172 287 -1.0
173 63 -1.0
173 288 -1.0
174 64 -1.0
174 289 -1.0
175 65 -1.0
175 290 -1.0
176 66 -1.0
176 291 -1.0
177 67 -1.0
177 292 -1.0
178 68 -1.0
178 293 -1.0
179 69 -1.0
179 294 -1.0
180 70 -1.0
180 295 -1.0
181 71 -1.0
181 296 -1.0
182 72 -1.0
182 297 -1.0
183 73 -1.0
183 298 -1.0
184 74 -1.0
184 299 -1.0
185 75 -1.0
185 300 -1.0
186 76 -1.0
186 301 -1.0
187 77 -1.0
187 302 -1.0
188 78 -1.0
188 303 -1.0
189 79 -1.0
189 304 -1.0
190 80 -1.0
190 305 -1.0
191 81 -1.0
191 306 -1.0
192 82 -1.0
192 307 -1.0
193 83 -1.0
193 308 -1.0
194 84 -1.0
194 309 -1.0
195 85 -1.0
195 310 -1.0
196 86 -1.0
196 311 -1.0
197 87 -1.0
197 312 -1.0
198 88 -1.0
198 313 -1.0
199 89 -1.0
199 314 -1.0
200 90 -1.0
200 315 -1.0
201 91 -1.0
201 316 -1.0
202 92 -1.0
202 317 -1.0
203 93 -1.0
203 318 -1.0
204 94 -1.0
204 319 -1.0
205 95 -1.0
205 320 -1.0
206 96 -1.0
206 321 -1.0
207 97 -1.0
207 322 -1.0
208 98 -1.0
208 323 -1.0
209 99 -1.0
209 324 -1.0
210 100 -1.0
210 325 -1.0
211 101 -1.0
211 326 -1.0
212 102 -1.0
212 327 -1.0
213 103 -1.0
213 328 -1.0
214 104 -1.0
214 329 -1.0
215 105 -1.0
215 330 -1.0
216 106 -1.0
216 331 -1.0
217 107 -1.0
217 332 -1.0
218 108 -1.0
218 333 -1.0
219 109 -1.0
219 334 -1.0
220 110 -1.0
220 335 -1.0
1.79769313486232E+308 # value for infinity
0.0 # default left-hand-side value
220 # number of non-default left-hand-sides
1 -1.79769313486232E+308
2 -1.79769313486232E+308
3 -1.79769313486232E+308
4 -1.79769313486232E+308
5 -1.79769313486232E+308
6 -1.79769313486232E+308
7 -1.79769313486232E+308
8 -1.79769313486232E+308
9 -1.79769313486232E+308
10 -1.79769313486232E+308
11 -1.79769313486232E+308
12 -1.79769313486232E+308
13 -1.79769313486232E+308
14 -1.79769313486232E+308
15 -1.79769313486232E+308
16 -1.79769313486232E+308
17 -1.79769313486232E+308
18 -1.79769313486232E+308
19 -1.79769313486232E+308
20 -1.79769313486232E+308
21 -1.79769313486232E+308
22 -1.79769313486232E+308
23 -1.79769313486232E+308
24 -1.79769313486232E+308
25 -1.79769313486232E+308
26 -1.79769313486232E+308
27 -1.79769313486232E+308
28 -1.79769313486232E+308
29 -1.79769313486232E+308
30 -1.79769313486232E+308
31 -1.79769313486232E+308
32 -1.79769313486232E+308
33 -1.79769313486232E+308
34 -1.79769313486232E+308
35 -1.79769313486232E+308
36 -1.79769313486232E+308
37 -1.79769313486232E+308
38 -1.79769313486232E+308
39 -1.79769313486232E+308
40 -1.79769313486232E+308
41 -1.79769313486232E+308
42 -1.79769313486232E+308
43 -1.79769313486232E+308
44 -1.79769313486232E+308
45 -1.79769313486232E+308
46 -1.79769313486232E+308
47 -1.79769313486232E+308
48 -1.79769313486232E+308
49 -1.79769313486232E+308
50 -1.79769313486232E+308
51 -1.79769313486232E+308
52 -1.79769313486232E+308
53 -1.79769313486232E+308
54 -1.79769313486232E+308
55 -1.79769313486232E+308
56 -1.79769313486232E+308
57 -1.79769313486232E+308
58 -1.79769313486232E+308
59 -1.79769313486232E+308
60 -1.79769313486232E+308
61 -1.79769313486232E+308
62 -1.79769313486232E+308
63 -1.79769313486232E+308
64 -1.79769313486232E+308
65 -1.79769313486232E+308
66 -1.79769313486232E+308
67 -1.79769313486232E+308
68 -1.79769313486232E+308
69 -1.79769313486232E+308
70 -1.79769313486232E+308
71 -1.79769313486232E+308
72 -1.79769313486232E+308
73 -1.79769313486232E+308
74 -1.79769313486232E+308
75 -1.79769313486232E+308
76 -1.79769313486232E+308
77 -1.79769313486232E+308
78 -1.79769313486232E+308
79 -1.79769313486232E+308
80 -1.79769313486232E+308
81 -1.79769313486232E+308
82 -1.79769313486232E+308
83 -1.79769313486232E+308
84 -1.79769313486232E+308
85 -1.79769313486232E+308
86 -1.79769313486232E+308
87 -1.79769313486232E+308
88 -1.79769313486232E+308
89 -1.79769313486232E+308
90 -1.79769313486232E+308
91 -1.79769313486232E+308
92 -1.79769313486232E+308
93 -1.79769313486232E+308
94 -1.79769313486232E+308
95 -1.79769313486232E+308
96 -1.79769313486232E+308
97 -1.79769313486232E+308
98 -1.79769313486232E+308
99 -1.79769313486232E+308
100 -1.79769313486232E+308
101 -1.79769313486232E+308
102 -1.79769313486232E+308
103 -1.79769313486232E+308
104 -1.79769313486232E+308
105 -1.79769313486232E+308
106 -1.79769313486232E+308
107 -1.79769313486232E+308
108 -1.79769313486232E+308
109 -1.79769313486232E+308
110 -1.79769313486232E+308
111 -1.0
112 -1.0
113 -1.0
114 -1.0
115 -1.0
116 -1.0
117 -1.0
118 -1.0
119 -1.0
120 -1.0
121 -1.0
122 -1.0
123 -1.0
124 -1.0
125 -1.0
126 -1.0
127 -1.0
128 -1.0
129 -1.0
130 -1.0
131 -1.0
132 -1.0
133 -1.0
134 -1.0
135 -1.0
136 -1.0
137 -1.0
138 -1.0
139 -1.0
140 -1.0
141 -1.0
142 -1.0
143 -1.0
144 -1.0
145 -1.0
146 -1.0
147 -1.0
148 -1.0
149 -1.0
150 -1.0
151 -1.0
152 -1.0
153 -1.0
154 -1.0
155 -1.0
156 -1.0
157 -1.0
158 -1.0
159 -1.0
160 -1.0
161 -1.0
162 -1.0
163 -1.0
164 -1.0
165 -1.0
166 -1.0
167 -1.0
168 -1.0
169 -1.0
170 -1.0
171 -1.0
172 -1.0
173 -1.0
174 -1.0
175 -1.0
176 -1.0
177 -1.0
178 -1.0
179 -1.0
180 -1.0
181 -1.0
182 -1.0
183 -1.0
184 -1.0
185 -1.0
186 -1.0
187 -1.0
188 -1.0
189 -1.0
190 -1.0
191 -1.0
192 -1.0
193 -1.0
194 -1.0
195 -1.0
196 -1.0
197 -1.0
198 -1.0
199 -1.0
200 -1.0
201 -1.0
202 -1.0
203 -1.0
204 -1.0
205 -1.0
206 -1.0
207 -1.0
208 -1.0
209 -1.0
210 -1.0
211 -1.0
212 -1.0
213 -1.0
214 -1.0
215 -1.0
216 -1.0
217 -1.0
218 -1.0
219 -1.0
220 -1.0
0.0 # default right-hand-side value
220 # number of non-default right-hand-sides
1 56.0
2 -29.0
3 14.0
4 -22.0
5 -48.0
6 88.0
7 75.0
8 53.0
9 85.0
10 26.0
11 -11.0
12 90.0
13 29.0
14 13.0
15 84.0
16 28.0
17 -76.0
18 -61.0
19 5.0
20 -5.0
21 68.0
22 -81.0
23 92.0
24 16.0
25 97.0
26 -34.0
27 96.0
28 47.0
29 -11.0
30 34.0
31 -86.0
32 -96.0
33 -22.0
34 -68.0
35 -72.0
36 50.0
37 57.0
38 -48.0
39 -28.0
40 -57.0
41 86.0
42 -86.0
43 14.0
44 72.0
45 -78.0
46 -58.0
47 -1.0
48 49.0
49 27.0
50 -66.0
51 79.0
52 -86.0
53 -53.0
54 13.0
55 21.0
56 -87.0
57 27.0
58 55.0
59 23.0
60 76.0
61 34.0
62 -18.0
63 98.0
64 -12.0
65 36.0
66 -19.0
67 5.0
68 -97.0
69 -71.0
70 11.0
71 -83.0
72 65.0
73 53.0
74 50.0
75 -27.0
76 30.0
77 79.0
78 17.0
79 64.0
80 3.0
81 -44.0
82 22.0
83 56.0
84 -64.0
85 -26.0
86 87.0
87 -31.0
88 -1.0
89 -24.0
90 60.0
91 89.0
92 6.0
93 -96.0
94 -11.0
95 1.0
96 77.0
97 13.0
98 -14.0
99 -77.0
100 24.0
101 -15.0
102 56.0
103 66.0
104 -97.0
105 21.0
106 -72.0
107 -69.0
108 -5.0
109 82.0
110 -2.0
111 -1.0
112 -1.0
113 -1.0
114 -1.0
115 -1.0
116 -1.0
117 -1.0
118 -1.0
119 -1.0
120 -1.0
121 -1.0
122 -1.0
123 -1.0
124 -1.0
125 -1.0
126 -1.0
127 -1.0
128 -1.0
129 -1.0
130 -1.0
131 -1.0
132 -1.0
133 -1.0
134 -1.0
135 -1.0
136 -1.0
137 -1.0
138 -1.0
139 -1.0
140 -1.0
141 -1.0
142 -1.0
143 -1.0
144 -1.0
145 -1.0
146 -1.0
147 -1.0
148 -1.0
149 -1.0
150 -1.0
151 -1.0
152 -1.0
153 -1.0
154 -1.0
155 -1.0
156 -1.0
157 -1.0
158 -1.0
159 -1.0
160 -1.0
161 -1.0
162 -1.0
163 -1.0
164 -1.0
165 -1.0
166 -1.0
167 -1.0
168 -1.0
169 -1.0
170 -1.0
171 -1.0
172 -1.0
173 -1.0
174 -1.0
175 -1.0
176 -1.0
177 -1.0
178 -1.0
179 -1.0
180 -1.0
181 -1.0
182 -1.0
183 -1.0
184 -1.0
185 -1.0
186 -1.0
187 -1.0
188 -1.0
189 -1.0
190 -1.0
191 -1.0
192 -1.0
193 -1.0
194 -1.0
195 -1.0
196 -1.0
197 -1.0
198 -1.0
199 -1.0
200 -1.0
201 -1.0
202 -1.0
203 -1.0
204 -1.0
205 -1.0
206 -1.0
207 -1.0
208 -1.0
209 -1.0
210 -1.0
211 -1.0
212 -1.0
213 -1.0
214 -1.0
215 -1.0
216 -1.0
217 -1.0
218 -1.0
219 -1.0
220 -1.0
-1.79769313486232E+308 # default variable lower bound value
220 # number of non-default variable lower bounds
1 0.0
2 0.0
3 0.0
4 0.0
5 0.0
6 0.0
7 0.0
8 0.0
9 0.0
10 0.0
11 0.0
12 0.0
13 0.0
14 0.0
15 0.0
16 0.0
17 0.0
18 0.0
19 0.0
20 0.0
21 0.0
22 0.0
23 0.0
24 0.0
25 0.0
26 0.0
27 0.0
28 0.0
29 0.0
30 0.0
31 0.0
32 0.0
33 0.0
34 0.0
35 0.0
36 0.0
37 0.0
38 0.0
39 0.0
40 0.0
41 0.0
42 0.0
43 0.0
44 0.0
45 0.0
46 0.0
47 0.0
48 0.0
49 0.0
50 0.0
51 0.0
52 0.0
53 0.0
54 0.0
55 0.0
56 0.0
57 0.0
58 0.0
59 0.0
60 0.0
61 0.0
62 0.0
63 0.0
64 0.0
65 0.0
66 0.0
67 0.0
68 0.0
69 0.0
70 0.0
71 0.0
72 0.0
73 0.0
74 0.0
75 0.0
76 0.0
77 0.0
78 0.0
79 0.0
80 0.0
81 0.0
82 0.0
83 0.0
84 0.0
85 0.0
86 0.0
87 0.0
88 0.0
89 0.0
90 0.0
91 0.0
92 0.0
93 0.0
94 0.0
95 0.0
96 0.0
97 0.0
98 0.0
99 0.0
100 0.0
101 0.0
102 0.0
103 0.0
104 0.0
105 0.0
106 0.0
107 0.0
108 0.0
109 0.0
110 0.0
116 0.0
117 0.0
118 0.0
119 0.0
120 0.0
121 0.0
122 0.0
123 0.0
124 0.0
125 0.0
126 0.0
127 0.0
128 0.0
129 0.0
130 0.0
131 0.0
132 0.0
133 0.0
134 0.0
135 0.0
136 0.0
137 0.0
138 0.0
139 0.0
140 0.0
141 0.0
142 0.0
143 0.0
144 0.0
145 0.0
146 0.0
147 0.0
148 0.0
149 0.0
150 0.0
151 0.0
152 0.0
153 0.0
154 0.0
155 0.0
156 0.0
157 0.0
158 0.0
159 0.0
160 0.0
161 0.0
162 0.0
163 0.0
164 0.0
165 0.0
166 0.0
167 0.0
168 0.0
169 0.0
170 0.0
171 0.0
172 0.0
173 0.0
174 0.0
175 0.0
176 0.0
177 0.0
178 0.0
179 0.0
180 0.0
181 0.0
182 0.0
183 0.0
184 0.0
185 0.0
186 0.0
187 0.0
188 0.0
189 0.0
190 0.0
191 0.0
192 0.0
193 0.0
194 0.0
195 0.0
196 0.0
197 0.0
198 0.0
199 0.0
200 0.0
201 0.0
202 0.0
203 0.0
204 0.0
205 0.0
206 0.0
207 0.0
208 0.0
209 0.0
210 0.0
211 0.0
212 0.0
213 0.0
214 0.0
215 0.0
216 0.0
217 0.0
218 0.0
219 0.0
220 0.0
221 0.0
222 0.0
223 0.0
224 0.0
225 0.0
1.79769313486232E+308 # default variable upper bound value
110 # number of non-default variable upper bounds
1 1.0
2 1.0
3 1.0
4 1.0
5 1.0
6 1.0
7 1.0
8 1.0
9 1.0
10 1.0
11 1.0
12 1.0
13 1.0
14 1.0
15 1.0
16 1.0
17 1.0
18 1.0
19 1.0
20 1.0
21 1.0
22 1.0
23 1.0
24 1.0
25 1.0
26 1.0
27 1.0
28 1.0
29 1.0
30 1.0
31 1.0
32 1.0
33 1.0
34 1.0
35 1.0
36 1.0
37 1.0
38 1.0
39 1.0
40 1.0
41 1.0
42 1.0
43 1.0
44 1.0
45 1.0
46 1.0
47 1.0
48 1.0
49 1.0
50 1.0
51 1.0
52 1.0
53 1.0
54 1.0
55 1.0
56 1.0
57 1.0
58 1.0
59 1.0
60 1.0
61 1.0
62 1.0
63 1.0
64 1.0
65 1.0
66 1.0
67 1.0
68 1.0
69 1.0
70 1.0
71 1.0
72 1.0
73 1.0
74 1.0
75 1.0
76 1.0
77 1.0
78 1.0
79 1.0
80 1.0
81 1.0
82 1.0
83 1.0
84 1.0
85 1.0
86 1.0
87 1.0
88 1.0
89 1.0
90 1.0
91 1.0
92 1.0
93 1.0
94 1.0
95 1.0
96 1.0
97 1.0
98 1.0
99 1.0
100 1.0
101 1.0
102 1.0
103 1.0
104 1.0
105 1.0
106 1.0
107 1.0
108 1.0
109 1.0
110 1.0
0 # default variable type
110 # number of non-default variable types
1 1
2 1
3 1
4 1
5 1
6 1
7 1
8 1
9 1
10 1
11 1
12 1
13 1
14 1
15 1
16 1
17 1
18 1
19 1
20 1
21 1
22 1
23 1
24 1
25 1
26 1
27 1
28 1
29 1
30 1
31 1
32 1
33 1
34 1
35 1
36 1
37 1
38 1
39 1
40 1
41 1
42 1
43 1
44 1
45 1
46 1
47 1
48 1
49 1
50 1
51 1
52 1
53 1
54 1
55 1
56 1
57 1
58 1
59 1
60 1
61 1
62 1
63 1
64 1
65 1
66 1
67 1
68 1
69 1
70 1
71 1
72 1
73 1
74 1
75 1
76 1
77 1
78 1
79 1
80 1
81 1
82 1
83 1
84 1
85 1
86 1
87 1
88 1
89 1
90 1
91 1
92 1
93 1
94 1
95 1
96 1
97 1
98 1
99 1
100 1
101 1
102 1
103 1
104 1
105 1
106 1
107 1
108 1
109 1
110 1
0.0 # default variable primal value in starting point
0 # number of non-default variable primal values in starting point
0.0 # default constraint dual value in starting point
0 # number of non-default constraint dual values in starting point
0.0 # default variable bound dual value in starting point
0 # number of non-default variable bound dual values in starting point
0 # number of non-default variable names
0 # number of non-default constraint names
